# Solution for model micodag
# Objective value = 2.1751566186668690e+01
s_0_1 0
s_1_0 0
s_0_2 0
s_2_0 1.0202874852863426e+01
s_0_3 0
s_3_0 1.0202874852863426e+01
s_0_4 0
s_4_0 1.0202874852863426e+01
s_0_5 0
s_5_0 1.0202874852863426e+01
s_0_6 0
s_6_0 1.0202874852863426e+01
s_0_7 0
s_7_0 1.0202874852863426e+01
s_0_8 0
s_8_0 1.0202874852863426e+01
s_0_9 0
s_9_0 1.0202874852863426e+01
s_0_10 0
s_10_0 1.0202874852863426e+01
s_0_11 0
s_11_0 1.0202874852863426e+01
s_0_12 0
s_12_0 1.0202874852863426e+01
s_0_13 0
s_13_0 1.0202874852863426e+01
s_0_14 0
s_14_0 1.0202874852863426e+01
s_0_15 0
s_15_0 1.0202874852863426e+01
s_0_16 0
s_16_0 1.0202874852863426e+01
s_0_17 0
s_17_0 1.0202874852863426e+01
s_0_18 0
s_18_0 1.0202874852863426e+01
s_0_19 0
s_19_0 1.0202874852863426e+01
s_0_20 0
s_20_0 1.0202874852863426e+01
s_0_21 0
s_21_0 1.0202874852863426e+01
s_0_22 0
s_22_0 1.0202874852863426e+01
s_0_23 0
s_23_0 1.0202874852863426e+01
s_0_24 0
s_24_0 1.0202874852863426e+01
s_0_25 0
s_25_0 1.0202874852863426e+01
s_0_26 0
s_26_0 1.0202874852863426e+01
s_1_2 0
s_2_1 0
s_1_3 0
s_3_1 1.0202874852863426e+01
s_1_4 0
s_4_1 0
s_1_5 0
s_5_1 1.0202874852863426e+01
s_1_6 0
s_6_1 0
s_1_7 0
s_7_1 1.0202874852863426e+01
s_1_8 0
s_8_1 0
s_1_9 0
s_9_1 1.0202874852863426e+01
s_1_10 0
s_10_1 0
s_1_11 0
s_11_1 1.0202874852863426e+01
s_1_12 0
s_12_1 0
s_1_13 0
s_13_1 1.0202874852863426e+01
s_1_15 0
s_15_1 1.0202874852863426e+01
s_1_17 0
s_17_1 1.0202874852863426e+01
s_1_19 0
s_19_1 1.0202874852863426e+01
s_1_21 0
s_21_1 1.0202874852863426e+01
s_1_23 0
s_23_1 1.0202874852863426e+01
s_1_25 0
s_25_1 1.0202874852863426e+01
s_2_3 0
s_3_2 0
s_2_4 0
s_4_2 0
s_2_5 0
s_5_2 2.3926913437058062e-01
s_2_6 0
s_6_2 0
s_2_7 0
s_7_2 0
s_2_8 0
s_8_2 3.6643653946467580e-01
s_2_11 0
s_11_2 7.6691168418624756e-01
s_2_14 0
s_14_2 3.6041322835904310e-01
s_2_17 0
s_17_2 3.3170742083850335e-01
s_2_20 0
s_20_2 2.2781922208693750e-01
s_2_23 0
s_23_2 7.3511511000450547e-01
s_2_26 0
s_26_2 0.692542482156826
s_3_4 0
s_4_3 0
s_3_5 0
s_5_3 0
s_3_7 0
s_7_3 1.0202874852863426e+01
s_3_9 0
s_9_3 0
s_3_11 0
s_11_3 1.0202874852863426e+01
s_3_15 0
s_15_3 1.0202874852863426e+01
s_3_19 0
s_19_3 1.0202874852863426e+01
s_3_23 0
s_23_3 1.0202874852863426e+01
s_4_9 0
s_9_4 1.0202874852863426e+01
s_4_14 0
s_14_4 1.0202874852863426e+01
s_4_19 0
s_19_4 1.0202874852863426e+01
s_4_24 0
s_24_4 1.0202874852863426e+01
s_5_7 0
s_7_5 0
s_5_8 0
s_8_5 0
s_5_11 0
s_11_5 7.0771707986724941e-01
s_5_17 0
s_17_5 3.6729881792522967e-01
s_5_23 0
s_23_5 1.2718949685614707e+00
s_6_13 0
s_13_6 1.2848634406401445e+00
s_6_20 0
s_20_6 2.2571107543793012e-01
s_7_11 0
s_11_7 0
s_7_15 0
s_15_7 3.5427877934836083e-01
s_7_23 0
s_23_7 7.2305103156979555e-01
s_8_17 0
s_17_8 6.5429977619146307e-01
s_8_26 0
s_26_8 7.5322188164875925e-01
s_9_19 0
s_19_9 1.2920163810750349e+00
s_10_21 0
s_21_10 1.2630630796444020e+00
s_11_23 0
s_23_11 1.2742812979635705e+00
s_12_25 0
s_25_12 6.4302449286631358e-01
s_0_0 1.0202874852863426e+01
s_1_1 1.0202874852863426e+01
s_2_2 2.0357699460054093e+00
s_3_3 1.0202874852863426e+01
s_4_4 1.0202874852863426e+01
s_5_5 6.7218176666403551e-01
s_6_6 6.7775909081070473e-01
s_7_7 1.0243961715689789e+00
s_8_8 1.0184724373038510e+00
s_9_9 6.6834599402539574e-01
s_10_10 6.6743746036506657e-01
s_11_11 1.9843363953300575e+00
s_12_12 1.9579938378564332e+00
s_13_13 2.0433029192631373e+00
s_14_14 9.8150112493413921e-01
s_15_15 9.9844776445905836e-01
s_16_16 9.9631671604216976e-01
s_17_17 1.0017590358739596e+00
s_18_18 6.6775503512130463e-01
s_19_19 1.9931906042929555e+00
s_20_20 0.647147648696432
s_21_21 1.9744289948133549e+00
s_22_22 1.9965317815822878e+00
s_23_23 2.0193218186959712e+00
s_24_24 2.0394151850730484e+00
s_25_25 9.9689711454263552e-01
s_26_26 2.0318751728940736e+00
Gamma_0_0 1.4036986996313137e+00
Gamma_0_1 0
Gamma_0_2 0
Gamma_0_3 0
Gamma_0_4 0
Gamma_0_5 0
Gamma_0_6 0
Gamma_0_7 0
Gamma_0_8 0
Gamma_0_9 0
Gamma_0_10 0
Gamma_0_11 0
Gamma_0_12 0
Gamma_0_13 0
Gamma_0_14 0
Gamma_0_15 0
Gamma_0_16 0
Gamma_0_17 0
Gamma_0_18 0
Gamma_0_19 0
Gamma_0_20 0
Gamma_0_21 0
Gamma_0_22 0
Gamma_0_23 0
Gamma_0_24 0
Gamma_0_25 0
Gamma_0_26 0
Gamma_1_0 0
Gamma_1_1 0.81991930468113
Gamma_1_2 0
Gamma_1_3 0
Gamma_1_4 0
Gamma_1_5 0
Gamma_1_6 0
Gamma_1_7 0
Gamma_1_8 0
Gamma_1_9 0
Gamma_1_10 0
Gamma_1_11 0
Gamma_1_12 0
Gamma_1_13 0
Gamma_1_14 0
Gamma_1_15 0
Gamma_1_16 0
Gamma_1_17 0
Gamma_1_18 0
Gamma_1_19 0
Gamma_1_20 0
Gamma_1_21 0
Gamma_1_22 0
Gamma_1_23 0
Gamma_1_24 0
Gamma_1_25 0
Gamma_1_26 0
Gamma_2_0 -8.4218802911358925e-01
Gamma_2_1 0
Gamma_2_2 1.4268041021827105e+00
Gamma_2_3 0
Gamma_2_4 0
Gamma_2_5 0
Gamma_2_6 0
Gamma_2_7 0
Gamma_2_8 0
Gamma_2_9 0
Gamma_2_10 0
Gamma_2_11 0
Gamma_2_12 0
Gamma_2_13 0
Gamma_2_14 0
Gamma_2_15 0
Gamma_2_16 0
Gamma_2_17 0
Gamma_2_18 0
Gamma_2_19 0
Gamma_2_20 0
Gamma_2_21 0
Gamma_2_22 0
Gamma_2_23 0
Gamma_2_24 0
Gamma_2_25 0
Gamma_2_26 0
Gamma_3_0 8.2674416964854058e-01
Gamma_3_1 5.9299729364990550e-01
Gamma_3_2 0
Gamma_3_3 9.9633285210807654e-01
Gamma_3_4 0
Gamma_3_5 0
Gamma_3_6 0
Gamma_3_7 0
Gamma_3_8 0
Gamma_3_9 0
Gamma_3_10 0
Gamma_3_11 0
Gamma_3_12 0
Gamma_3_13 0
Gamma_3_14 0
Gamma_3_15 0
Gamma_3_16 0
Gamma_3_17 0
Gamma_3_18 0
Gamma_3_19 0
Gamma_3_20 0
Gamma_3_21 0
Gamma_3_22 0
Gamma_3_23 0
Gamma_3_24 0
Gamma_3_25 0
Gamma_3_26 0
Gamma_4_0 8.3037939307395159e-01
Gamma_4_1 0
Gamma_4_2 0
Gamma_4_3 0
Gamma_4_4 1.40813660888732
Gamma_4_5 0
Gamma_4_6 0
Gamma_4_7 0
Gamma_4_8 0
Gamma_4_9 0
Gamma_4_10 0
Gamma_4_11 0
Gamma_4_12 0
Gamma_4_13 0
Gamma_4_14 0
Gamma_4_15 0
Gamma_4_16 0
Gamma_4_17 0
Gamma_4_18 0
Gamma_4_19 0
Gamma_4_20 0
Gamma_4_21 0
Gamma_4_22 0
Gamma_4_23 0
Gamma_4_24 0
Gamma_4_25 0
Gamma_4_26 0
Gamma_5_0 6.5856746914164765e-01
Gamma_5_1 6.4950610330888758e-01
Gamma_5_2 -4.8915144318562753e-01
Gamma_5_3 0
Gamma_5_4 0
Gamma_5_5 8.1986692009376594e-01
Gamma_5_6 0
Gamma_5_7 0
Gamma_5_8 0
Gamma_5_9 0
Gamma_5_10 0
Gamma_5_11 0
Gamma_5_12 0
Gamma_5_13 0
Gamma_5_14 0
Gamma_5_15 0
Gamma_5_16 0
Gamma_5_17 0
Gamma_5_18 0
Gamma_5_19 0
Gamma_5_20 0
Gamma_5_21 0
Gamma_5_22 0
Gamma_5_23 0
Gamma_5_24 0
Gamma_5_25 0
Gamma_5_26 0
Gamma_6_0 -5.0123558670888713e-01
Gamma_6_1 0
Gamma_6_2 0
Gamma_6_3 0
Gamma_6_4 0
Gamma_6_5 0
Gamma_6_6 8.2326125307262321e-01
Gamma_6_7 0
Gamma_6_8 0
Gamma_6_9 0
Gamma_6_10 0
Gamma_6_11 0
Gamma_6_12 0
Gamma_6_13 0
Gamma_6_14 0
Gamma_6_15 0
Gamma_6_16 0
Gamma_6_17 0
Gamma_6_18 0
Gamma_6_19 0
Gamma_6_20 0
Gamma_6_21 0
Gamma_6_22 0
Gamma_6_23 0
Gamma_6_24 0
Gamma_6_25 0
Gamma_6_26 0
Gamma_7_0 -6.1020179256394480e-01
Gamma_7_1 -0.60847175126491
Gamma_7_2 0
Gamma_7_3 0.810839390295122
Gamma_7_4 0
Gamma_7_5 0
Gamma_7_6 0
Gamma_7_7 1.0121245830276924e+00
Gamma_7_8 0
Gamma_7_9 0
Gamma_7_10 0
Gamma_7_11 0
Gamma_7_12 0
Gamma_7_13 0
Gamma_7_14 0
Gamma_7_15 0
Gamma_7_16 0
Gamma_7_17 0
Gamma_7_18 0
Gamma_7_19 0
Gamma_7_20 0
Gamma_7_21 0
Gamma_7_22 0
Gamma_7_23 0
Gamma_7_24 0
Gamma_7_25 0
Gamma_7_26 0
Gamma_8_0 5.9929733497308879e-01
Gamma_8_1 0
Gamma_8_2 6.0534001971179574e-01
Gamma_8_3 0
Gamma_8_4 0
Gamma_8_5 0
Gamma_8_6 0
Gamma_8_7 0
Gamma_8_8 1.0091939542545096e+00
Gamma_8_9 0
Gamma_8_10 0
Gamma_8_11 0
Gamma_8_12 0
Gamma_8_13 0
Gamma_8_14 0
Gamma_8_15 0
Gamma_8_16 0
Gamma_8_17 0
Gamma_8_18 0
Gamma_8_19 0
Gamma_8_20 0
Gamma_8_21 0
Gamma_8_22 0
Gamma_8_23 0
Gamma_8_24 0
Gamma_8_25 0
Gamma_8_26 0
Gamma_9_0 0.493380714742409
Gamma_9_1 -6.5677840910148855e-01
Gamma_9_2 0
Gamma_9_3 0
Gamma_9_4 -5.0158630255876524e-01
Gamma_9_5 0
Gamma_9_6 0
Gamma_9_7 0
Gamma_9_8 0
Gamma_9_9 8.1752430791102315e-01
Gamma_9_10 0
Gamma_9_11 0
Gamma_9_12 0
Gamma_9_13 0
Gamma_9_14 0
Gamma_9_15 0
Gamma_9_16 0
Gamma_9_17 0
Gamma_9_18 0
Gamma_9_19 0
Gamma_9_20 0
Gamma_9_21 0
Gamma_9_22 0
Gamma_9_23 0
Gamma_9_24 0
Gamma_9_25 0
Gamma_9_26 0
Gamma_10_0 -4.9004502747230760e-01
Gamma_10_1 0
Gamma_10_2 0
Gamma_10_3 0
Gamma_10_4 0
Gamma_10_5 0
Gamma_10_6 0
Gamma_10_7 0
Gamma_10_8 0
Gamma_10_9 0
Gamma_10_10 8.1696845738686186e-01
Gamma_10_11 0
Gamma_10_12 0
Gamma_10_13 0
Gamma_10_14 0
Gamma_10_15 0
Gamma_10_16 0
Gamma_10_17 0
Gamma_10_18 0
Gamma_10_19 0
Gamma_10_20 0
Gamma_10_21 0
Gamma_10_22 0
Gamma_10_23 0
Gamma_10_24 0
Gamma_10_25 0
Gamma_10_26 0
Gamma_11_0 -8.5936152163428547e-01
Gamma_11_1 8.3630326540291322e-01
Gamma_11_2 8.7573493945728165e-01
Gamma_11_3 8.4912572563436972e-01
Gamma_11_4 0
Gamma_11_5 8.4125922275315979e-01
Gamma_11_6 0
Gamma_11_7 0
Gamma_11_8 0
Gamma_11_9 0
Gamma_11_10 0
Gamma_11_11 1.4086647561893706e+00
Gamma_11_12 0
Gamma_11_13 0
Gamma_11_14 0
Gamma_11_15 0
Gamma_11_16 0
Gamma_11_17 0
Gamma_11_18 0
Gamma_11_19 0
Gamma_11_20 0
Gamma_11_21 0
Gamma_11_22 0
Gamma_11_23 0
Gamma_11_24 0
Gamma_11_25 0
Gamma_11_26 0
Gamma_12_0 1.1184232570478820e+00
Gamma_12_1 0
Gamma_12_2 0
Gamma_12_3 0
Gamma_12_4 0
Gamma_12_5 0
Gamma_12_6 0
Gamma_12_7 0
Gamma_12_8 0
Gamma_12_9 0
Gamma_12_10 0
Gamma_12_11 0
Gamma_12_12 1.3992833300859531e+00
Gamma_12_13 0
Gamma_12_14 0
Gamma_12_15 0
Gamma_12_16 0
Gamma_12_17 0
Gamma_12_18 0
Gamma_12_19 0
Gamma_12_20 0
Gamma_12_21 0
Gamma_12_22 0
Gamma_12_23 0
Gamma_12_24 0
Gamma_12_25 0
Gamma_12_26 0
Gamma_13_0 1.1375151826662739e+00
Gamma_13_1 8.5681736549006660e-01
Gamma_13_2 0
Gamma_13_3 0
Gamma_13_4 0
Gamma_13_5 0
Gamma_13_6 -1.1335181695236063e+00
Gamma_13_7 0
Gamma_13_8 0
Gamma_13_9 0
Gamma_13_10 0
Gamma_13_11 0
Gamma_13_12 0
Gamma_13_13 1.4294414710869208e+00
Gamma_13_14 0
Gamma_13_15 0
Gamma_13_16 0
Gamma_13_17 0
Gamma_13_18 0
Gamma_13_19 0
Gamma_13_20 0
Gamma_13_21 0
Gamma_13_22 0
Gamma_13_23 0
Gamma_13_24 0
Gamma_13_25 0
Gamma_13_26 0
Gamma_14_0 8.1263757303293327e-01
Gamma_14_1 0
Gamma_14_2 6.0034425820444537e-01
Gamma_14_3 0
Gamma_14_4 -6.1035110892777777e-01
Gamma_14_5 0
Gamma_14_6 0
Gamma_14_7 0
Gamma_14_8 0
Gamma_14_9 0
Gamma_14_10 0
Gamma_14_11 0
Gamma_14_12 0
Gamma_14_13 0
Gamma_14_14 9.9070738613080933e-01
Gamma_14_15 0
Gamma_14_16 0
Gamma_14_17 0
Gamma_14_18 0
Gamma_14_19 0
Gamma_14_20 0
Gamma_14_21 0
Gamma_14_22 0
Gamma_14_23 0
Gamma_14_24 0
Gamma_14_25 0
Gamma_14_26 0
Gamma_15_0 6.1995479695649891e-01
Gamma_15_1 -5.9323685956473682e-01
Gamma_15_2 0
Gamma_15_3 7.9966867324653124e-01
Gamma_15_4 0
Gamma_15_5 0
Gamma_15_6 0
Gamma_15_7 5.9521322175197222e-01
Gamma_15_8 0
Gamma_15_9 0
Gamma_15_10 0
Gamma_15_11 0
Gamma_15_12 0
Gamma_15_13 0
Gamma_15_14 0
Gamma_15_15 9.9922358081615581e-01
Gamma_15_16 0
Gamma_15_17 0
Gamma_15_18 0
Gamma_15_19 0
Gamma_15_20 0
Gamma_15_21 0
Gamma_15_22 0
Gamma_15_23 0
Gamma_15_24 0
Gamma_15_25 0
Gamma_15_26 0
Gamma_16_0 5.9074436883547565e-01
Gamma_16_1 0
Gamma_16_2 0
Gamma_16_3 0
Gamma_16_4 0
Gamma_16_5 0
Gamma_16_6 0
Gamma_16_7 0
Gamma_16_8 0
Gamma_16_9 0
Gamma_16_10 0
Gamma_16_11 0
Gamma_16_12 0
Gamma_16_13 0
Gamma_16_14 0
Gamma_16_15 0
Gamma_16_16 9.9815665906819018e-01
Gamma_16_17 0
Gamma_16_18 0
Gamma_16_19 0
Gamma_16_20 0
Gamma_16_21 0
Gamma_16_22 0
Gamma_16_23 0
Gamma_16_24 0
Gamma_16_25 0
Gamma_16_26 0
Gamma_17_0 6.2876465099039858e-01
Gamma_17_1 -8.1070110057454015e-01
Gamma_17_2 5.7594046640126362e-01
Gamma_17_3 0
Gamma_17_4 0
Gamma_17_5 -6.0605182775504529e-01
Gamma_17_6 0
Gamma_17_7 0
Gamma_17_8 8.0888798741943579e-01
Gamma_17_9 0
Gamma_17_10 0
Gamma_17_11 0
Gamma_17_12 0
Gamma_17_13 0
Gamma_17_14 0
Gamma_17_15 0
Gamma_17_16 0
Gamma_17_17 1.0008791315008825e+00
Gamma_17_18 0
Gamma_17_19 0
Gamma_17_20 0
Gamma_17_21 0
Gamma_17_22 0
Gamma_17_23 0
Gamma_17_24 0
Gamma_17_25 0
Gamma_17_26 0
Gamma_18_0 4.6406977138796157e-01
Gamma_18_1 0
Gamma_18_2 0
Gamma_18_3 0
Gamma_18_4 0
Gamma_18_5 0
Gamma_18_6 0
Gamma_18_7 0
Gamma_18_8 0
Gamma_18_9 0
Gamma_18_10 0
Gamma_18_11 0
Gamma_18_12 0
Gamma_18_13 0
Gamma_18_14 0
Gamma_18_15 0
Gamma_18_16 0
Gamma_18_17 0
Gamma_18_18 8.1716279597232455e-01
Gamma_18_19 0
Gamma_18_20 0
Gamma_18_21 0
Gamma_18_22 0
Gamma_18_23 0
Gamma_18_24 0
Gamma_18_25 0
Gamma_18_26 0
Gamma_19_0 -8.3457188703131246e-01
Gamma_19_1 8.4085856140902271e-01
Gamma_19_2 0
Gamma_19_3 -1.1290148548546795e+00
Gamma_19_4 8.5466075740354230e-01
Gamma_19_5 0
Gamma_19_6 0
Gamma_19_7 0
Gamma_19_8 0
Gamma_19_9 1.1366689848302527e+00
Gamma_19_10 0
Gamma_19_11 0
Gamma_19_12 0
Gamma_19_13 0
Gamma_19_14 0
Gamma_19_15 0
Gamma_19_16 0
Gamma_19_17 0
Gamma_19_18 0
Gamma_19_19 1.4118040247474002e+00
Gamma_19_20 0
Gamma_19_21 0
Gamma_19_22 0
Gamma_19_23 0
Gamma_19_24 0
Gamma_19_25 0
Gamma_19_26 0
Gamma_20_0 0.648952166444
Gamma_20_1 0
Gamma_20_2 -4.7730411907602355e-01
Gamma_20_3 0
Gamma_20_4 0
Gamma_20_5 0
Gamma_20_6 -4.7509059708431678e-01
Gamma_20_7 0
Gamma_20_8 0
Gamma_20_9 0
Gamma_20_10 0
Gamma_20_11 0
Gamma_20_12 0
Gamma_20_13 0
Gamma_20_14 0
Gamma_20_15 0
Gamma_20_16 0
Gamma_20_17 0
Gamma_20_18 0
Gamma_20_19 0
Gamma_20_20 0.80445487673109
Gamma_20_21 0
Gamma_20_22 0
Gamma_20_23 0
Gamma_20_24 0
Gamma_20_25 0
Gamma_20_26 0
Gamma_21_0 -8.4606900451766753e-01
Gamma_21_1 1.1239221893163165e+00
Gamma_21_2 0
Gamma_21_3 0
Gamma_21_4 0
Gamma_21_5 0
Gamma_21_6 0
Gamma_21_7 0
Gamma_21_8 0
Gamma_21_9 0
Gamma_21_10 1.1238607919330599e+00
Gamma_21_11 0
Gamma_21_12 0
Gamma_21_13 0
Gamma_21_14 0
Gamma_21_15 0
Gamma_21_16 0
Gamma_21_17 0
Gamma_21_18 0
Gamma_21_19 0
Gamma_21_20 0
Gamma_21_21 1.4051437630411190e+00
Gamma_21_22 0
Gamma_21_23 0
Gamma_21_24 0
Gamma_21_25 0
Gamma_21_26 0
Gamma_22_0 1.1070526033237849e+00
Gamma_22_1 0
Gamma_22_2 0
Gamma_22_3 0
Gamma_22_4 0
Gamma_22_5 0
Gamma_22_6 0
Gamma_22_7 0
Gamma_22_8 0
Gamma_22_9 0
Gamma_22_10 0
Gamma_22_11 0
Gamma_22_12 0
Gamma_22_13 0
Gamma_22_14 0
Gamma_22_15 0
Gamma_22_16 0
Gamma_22_17 0
Gamma_22_18 0
Gamma_22_19 0
Gamma_22_20 0
Gamma_22_21 0
Gamma_22_22 1.4129868299394337e+00
Gamma_22_23 0
Gamma_22_24 0
Gamma_22_25 0
Gamma_22_26 0
Gamma_23_0 1.1729957947409329e+00
Gamma_23_1 8.5312775525591988e-01
Gamma_23_2 -8.5738854086377136e-01
Gamma_23_3 1.1372487331899408e+00
Gamma_23_4 0
Gamma_23_5 -1.1277832099129128e+00
Gamma_23_6 0
Gamma_23_7 -8.5032407443856262e-01
Gamma_23_8 0
Gamma_23_9 0
Gamma_23_10 0
Gamma_23_11 1.1288406875921742e+00
Gamma_23_12 0
Gamma_23_13 0
Gamma_23_14 0
Gamma_23_15 0
Gamma_23_16 0
Gamma_23_17 0
Gamma_23_18 0
Gamma_23_19 0
Gamma_23_20 0
Gamma_23_21 0
Gamma_23_22 0
Gamma_23_23 1.4210284369765347e+00
Gamma_23_24 0
Gamma_23_25 0
Gamma_23_26 0
Gamma_24_0 1.1201109570553740e+00
Gamma_24_1 0
Gamma_24_2 0
Gamma_24_3 0
Gamma_24_4 8.5531363691378814e-01
Gamma_24_5 0
Gamma_24_6 0
Gamma_24_7 0
Gamma_24_8 0
Gamma_24_9 0
Gamma_24_10 0
Gamma_24_11 0
Gamma_24_12 0
Gamma_24_13 0
Gamma_24_14 0
Gamma_24_15 0
Gamma_24_16 0
Gamma_24_17 0
Gamma_24_18 0
Gamma_24_19 0
Gamma_24_20 0
Gamma_24_21 0
Gamma_24_22 0
Gamma_24_23 0
Gamma_24_24 1.4280809448602869e+00
Gamma_24_25 0
Gamma_24_26 0
Gamma_25_0 0.799947508102638
Gamma_25_1 -8.0556903776680489e-01
Gamma_25_2 0
Gamma_25_3 0
Gamma_25_4 0
Gamma_25_5 0
Gamma_25_6 0
Gamma_25_7 0
Gamma_25_8 0
Gamma_25_9 0
Gamma_25_10 0
Gamma_25_11 0
Gamma_25_12 8.0188808001261369e-01
Gamma_25_13 0
Gamma_25_14 0
Gamma_25_15 0
Gamma_25_16 0
Gamma_25_17 0
Gamma_25_18 0
Gamma_25_19 0
Gamma_25_20 0
Gamma_25_21 0
Gamma_25_22 0
Gamma_25_23 0
Gamma_25_24 0
Gamma_25_25 9.9844735191327716e-01
Gamma_25_26 0
Gamma_26_0 8.4468811864559445e-01
Gamma_26_1 0
Gamma_26_2 8.3219137351743089e-01
Gamma_26_3 0
Gamma_26_4 0
Gamma_26_5 0
Gamma_26_6 0
Gamma_26_7 0
Gamma_26_8 -8.6788356456886573e-01
Gamma_26_9 0
Gamma_26_10 0
Gamma_26_11 0
Gamma_26_12 0
Gamma_26_13 0
Gamma_26_14 0
Gamma_26_15 0
Gamma_26_16 0
Gamma_26_17 0
Gamma_26_18 0
Gamma_26_19 0
Gamma_26_20 0
Gamma_26_21 0
Gamma_26_22 0
Gamma_26_23 0
Gamma_26_24 0
Gamma_26_25 0
Gamma_26_26 1.4254385896607660e+00
psi_0 4
psi_1 3
psi_2 3
psi_3 2
psi_4 2
psi_5 2
psi_6 1
psi_7 1
psi_8 1
psi_9 1
psi_10 1
psi_11 1
psi_12 1
psi_13 0
psi_14 0
psi_15 0
psi_16 0
psi_17 0
psi_18 0
psi_19 0
psi_20 0
psi_21 0
psi_22 0
psi_23 0
psi_24 0
psi_25 0
psi_26 0
g_0_0 0
g_0_1 0
g_0_2 0
g_0_3 0
g_0_4 0
g_0_5 0
g_0_6 0
g_0_7 0
g_0_8 0
g_0_9 0
g_0_10 0
g_0_11 0
g_0_12 0
g_0_13 0
g_0_14 0
g_0_15 0
g_0_16 0
g_0_17 0
g_0_18 0
g_0_19 0
g_0_20 0
g_0_21 0
g_0_22 0
g_0_23 0
g_0_24 0
g_0_25 0
g_0_26 0
g_1_0 0
g_1_1 0
g_1_2 0
g_1_3 0
g_1_4 0
g_1_5 0
g_1_6 0
g_1_7 0
g_1_8 0
g_1_9 0
g_1_10 0
g_1_11 0
g_1_12 0
g_1_13 0
g_1_14 0
g_1_15 0
g_1_16 0
g_1_17 0
g_1_18 0
g_1_19 0
g_1_20 0
g_1_21 0
g_1_22 0
g_1_23 0
g_1_24 0
g_1_25 0
g_1_26 0
g_2_0 1
g_2_1 0
g_2_2 0
g_2_3 0
g_2_4 0
g_2_5 0
g_2_6 0
g_2_7 0
g_2_8 0
g_2_9 0
g_2_10 0
g_2_11 0
g_2_12 0
g_2_13 0
g_2_14 0
g_2_15 0
g_2_16 0
g_2_17 0
g_2_18 0
g_2_19 0
g_2_20 0
g_2_21 0
g_2_22 0
g_2_23 0
g_2_24 0
g_2_25 0
g_2_26 0
g_3_0 1
g_3_1 1
g_3_2 0
g_3_3 0
g_3_4 0
g_3_5 0
g_3_6 0
g_3_7 0
g_3_8 0
g_3_9 0
g_3_10 0
g_3_11 0
g_3_12 0
g_3_13 0
g_3_14 0
g_3_15 0
g_3_16 0
g_3_17 0
g_3_18 0
g_3_19 0
g_3_20 0
g_3_21 0
g_3_22 0
g_3_23 0
g_3_24 0
g_3_25 0
g_3_26 0
g_4_0 1
g_4_1 0
g_4_2 0
g_4_3 0
g_4_4 0
g_4_5 0
g_4_6 0
g_4_7 0
g_4_8 0
g_4_9 0
g_4_10 0
g_4_11 0
g_4_12 0
g_4_13 0
g_4_14 0
g_4_15 0
g_4_16 0
g_4_17 0
g_4_18 0
g_4_19 0
g_4_20 0
g_4_21 0
g_4_22 0
g_4_23 0
g_4_24 0
g_4_25 0
g_4_26 0
g_5_0 1
g_5_1 1
g_5_2 1
g_5_3 0
g_5_4 0
g_5_5 0
g_5_6 0
g_5_7 0
g_5_8 0
g_5_9 0
g_5_10 0
g_5_11 0
g_5_12 0
g_5_13 0
g_5_14 0
g_5_15 0
g_5_16 0
g_5_17 0
g_5_18 0
g_5_19 0
g_5_20 0
g_5_21 0
g_5_22 0
g_5_23 0
g_5_24 0
g_5_25 0
g_5_26 0
g_6_0 1
g_6_1 0
g_6_2 0
g_6_3 0
g_6_4 0
g_6_5 0
g_6_6 0
g_6_7 0
g_6_8 0
g_6_9 0
g_6_10 0
g_6_11 0
g_6_12 0
g_6_13 0
g_6_14 0
g_6_15 0
g_6_16 0
g_6_17 0
g_6_18 0
g_6_19 0
g_6_20 0
g_6_21 0
g_6_22 0
g_6_23 0
g_6_24 0
g_6_25 0
g_6_26 0
g_7_0 1
g_7_1 1
g_7_2 0
g_7_3 1
g_7_4 0
g_7_5 0
g_7_6 0
g_7_7 0
g_7_8 0
g_7_9 0
g_7_10 0
g_7_11 0
g_7_12 0
g_7_13 0
g_7_14 0
g_7_15 0
g_7_16 0
g_7_17 0
g_7_18 0
g_7_19 0
g_7_20 0
g_7_21 0
g_7_22 0
g_7_23 0
g_7_24 0
g_7_25 0
g_7_26 0
g_8_0 1
g_8_1 0
g_8_2 1
g_8_3 0
g_8_4 0
g_8_5 0
g_8_6 0
g_8_7 0
g_8_8 0
g_8_9 0
g_8_10 0
g_8_11 0
g_8_12 0
g_8_13 0
g_8_14 0
g_8_15 0
g_8_16 0
g_8_17 0
g_8_18 0
g_8_19 0
g_8_20 0
g_8_21 0
g_8_22 0
g_8_23 0
g_8_24 0
g_8_25 0
g_8_26 0
g_9_0 1
g_9_1 1
g_9_2 0
g_9_3 0
g_9_4 1
g_9_5 0
g_9_6 0
g_9_7 0
g_9_8 0
g_9_9 0
g_9_10 0
g_9_11 0
g_9_12 0
g_9_13 0
g_9_14 0
g_9_15 0
g_9_16 0
g_9_17 0
g_9_18 0
g_9_19 0
g_9_20 0
g_9_21 0
g_9_22 0
g_9_23 0
g_9_24 0
g_9_25 0
g_9_26 0
g_10_0 1
g_10_1 0
g_10_2 0
g_10_3 0
g_10_4 0
g_10_5 0
g_10_6 0
g_10_7 0
g_10_8 0
g_10_9 0
g_10_10 0
g_10_11 0
g_10_12 0
g_10_13 0
g_10_14 0
g_10_15 0
g_10_16 0
g_10_17 0
g_10_18 0
g_10_19 0
g_10_20 0
g_10_21 0
g_10_22 0
g_10_23 0
g_10_24 0
g_10_25 0
g_10_26 0
g_11_0 1
g_11_1 1
g_11_2 1
g_11_3 1
g_11_4 0
g_11_5 1
g_11_6 0
g_11_7 0
g_11_8 0
g_11_9 0
g_11_10 0
g_11_11 0
g_11_12 0
g_11_13 0
g_11_14 0
g_11_15 0
g_11_16 0
g_11_17 0
g_11_18 0
g_11_19 0
g_11_20 0
g_11_21 0
g_11_22 0
g_11_23 0
g_11_24 0
g_11_25 0
g_11_26 0
g_12_0 1
g_12_1 0
g_12_2 0
g_12_3 0
g_12_4 0
g_12_5 0
g_12_6 0
g_12_7 0
g_12_8 0
g_12_9 0
g_12_10 0
g_12_11 0
g_12_12 0
g_12_13 0
g_12_14 0
g_12_15 0
g_12_16 0
g_12_17 0
g_12_18 0
g_12_19 0
g_12_20 0
g_12_21 0
g_12_22 0
g_12_23 0
g_12_24 0
g_12_25 0
g_12_26 0
g_13_0 1
g_13_1 1
g_13_2 0
g_13_3 0
g_13_4 0
g_13_5 0
g_13_6 1
g_13_7 0
g_13_8 0
g_13_9 0
g_13_10 0
g_13_11 0
g_13_12 0
g_13_13 0
g_13_14 0
g_13_15 0
g_13_16 0
g_13_17 0
g_13_18 0
g_13_19 0
g_13_20 0
g_13_21 0
g_13_22 0
g_13_23 0
g_13_24 0
g_13_25 0
g_13_26 0
g_14_0 1
g_14_1 0
g_14_2 1
g_14_3 0
g_14_4 1
g_14_5 0
g_14_6 0
g_14_7 0
g_14_8 0
g_14_9 0
g_14_10 0
g_14_11 0
g_14_12 0
g_14_13 0
g_14_14 0
g_14_15 0
g_14_16 0
g_14_17 0
g_14_18 0
g_14_19 0
g_14_20 0
g_14_21 0
g_14_22 0
g_14_23 0
g_14_24 0
g_14_25 0
g_14_26 0
g_15_0 1
g_15_1 1
g_15_2 0
g_15_3 1
g_15_4 0
g_15_5 0
g_15_6 0
g_15_7 1
g_15_8 0
g_15_9 0
g_15_10 0
g_15_11 0
g_15_12 0
g_15_13 0
g_15_14 0
g_15_15 0
g_15_16 0
g_15_17 0
g_15_18 0
g_15_19 0
g_15_20 0
g_15_21 0
g_15_22 0
g_15_23 0
g_15_24 0
g_15_25 0
g_15_26 0
g_16_0 1
g_16_1 0
g_16_2 0
g_16_3 0
g_16_4 0
g_16_5 0
g_16_6 0
g_16_7 0
g_16_8 0
g_16_9 0
g_16_10 0
g_16_11 0
g_16_12 0
g_16_13 0
g_16_14 0
g_16_15 0
g_16_16 0
g_16_17 0
g_16_18 0
g_16_19 0
g_16_20 0
g_16_21 0
g_16_22 0
g_16_23 0
g_16_24 0
g_16_25 0
g_16_26 0
g_17_0 1
g_17_1 1
g_17_2 1
g_17_3 0
g_17_4 0
g_17_5 1
g_17_6 0
g_17_7 0
g_17_8 1
g_17_9 0
g_17_10 0
g_17_11 0
g_17_12 0
g_17_13 0
g_17_14 0
g_17_15 0
g_17_16 0
g_17_17 0
g_17_18 0
g_17_19 0
g_17_20 0
g_17_21 0
g_17_22 0
g_17_23 0
g_17_24 0
g_17_25 0
g_17_26 0
g_18_0 1
g_18_1 0
g_18_2 0
g_18_3 0
g_18_4 0
g_18_5 0
g_18_6 0
g_18_7 0
g_18_8 0
g_18_9 0
g_18_10 0
g_18_11 0
g_18_12 0
g_18_13 0
g_18_14 0
g_18_15 0
g_18_16 0
g_18_17 0
g_18_18 0
g_18_19 0
g_18_20 0
g_18_21 0
g_18_22 0
g_18_23 0
g_18_24 0
g_18_25 0
g_18_26 0
g_19_0 1
g_19_1 1
g_19_2 0
g_19_3 1
g_19_4 1
g_19_5 0
g_19_6 0
g_19_7 0
g_19_8 0
g_19_9 1
g_19_10 0
g_19_11 0
g_19_12 0
g_19_13 0
g_19_14 0
g_19_15 0
g_19_16 0
g_19_17 0
g_19_18 0
g_19_19 0
g_19_20 0
g_19_21 0
g_19_22 0
g_19_23 0
g_19_24 0
g_19_25 0
g_19_26 0
g_20_0 1
g_20_1 0
g_20_2 1
g_20_3 0
g_20_4 0
g_20_5 0
g_20_6 1
g_20_7 0
g_20_8 0
g_20_9 0
g_20_10 0
g_20_11 0
g_20_12 0
g_20_13 0
g_20_14 0
g_20_15 0
g_20_16 0
g_20_17 0
g_20_18 0
g_20_19 0
g_20_20 0
g_20_21 0
g_20_22 0
g_20_23 0
g_20_24 0
g_20_25 0
g_20_26 0
g_21_0 1
g_21_1 1
g_21_2 0
g_21_3 0
g_21_4 0
g_21_5 0
g_21_6 0
g_21_7 0
g_21_8 0
g_21_9 0
g_21_10 1
g_21_11 0
g_21_12 0
g_21_13 0
g_21_14 0
g_21_15 0
g_21_16 0
g_21_17 0
g_21_18 0
g_21_19 0
g_21_20 0
g_21_21 0
g_21_22 0
g_21_23 0
g_21_24 0
g_21_25 0
g_21_26 0
g_22_0 1
g_22_1 0
g_22_2 0
g_22_3 0
g_22_4 0
g_22_5 0
g_22_6 0
g_22_7 0
g_22_8 0
g_22_9 0
g_22_10 0
g_22_11 0
g_22_12 0
g_22_13 0
g_22_14 0
g_22_15 0
g_22_16 0
g_22_17 0
g_22_18 0
g_22_19 0
g_22_20 0
g_22_21 0
g_22_22 0
g_22_23 0
g_22_24 0
g_22_25 0
g_22_26 0
g_23_0 1
g_23_1 1
g_23_2 1
g_23_3 1
g_23_4 0
g_23_5 1
g_23_6 0
g_23_7 1
g_23_8 0
g_23_9 0
g_23_10 0
g_23_11 1
g_23_12 0
g_23_13 0
g_23_14 0
g_23_15 0
g_23_16 0
g_23_17 0
g_23_18 0
g_23_19 0
g_23_20 0
g_23_21 0
g_23_22 0
g_23_23 0
g_23_24 0
g_23_25 0
g_23_26 0
g_24_0 1
g_24_1 0
g_24_2 0
g_24_3 0
g_24_4 1
g_24_5 0
g_24_6 0
g_24_7 0
g_24_8 0
g_24_9 0
g_24_10 0
g_24_11 0
g_24_12 0
g_24_13 0
g_24_14 0
g_24_15 0
g_24_16 0
g_24_17 0
g_24_18 0
g_24_19 0
g_24_20 0
g_24_21 0
g_24_22 0
g_24_23 0
g_24_24 0
g_24_25 0
g_24_26 0
g_25_0 1
g_25_1 1
g_25_2 0
g_25_3 0
g_25_4 0
g_25_5 0
g_25_6 0
g_25_7 0
g_25_8 0
g_25_9 0
g_25_10 0
g_25_11 0
g_25_12 1
g_25_13 0
g_25_14 0
g_25_15 0
g_25_16 0
g_25_17 0
g_25_18 0
g_25_19 0
g_25_20 0
g_25_21 0
g_25_22 0
g_25_23 0
g_25_24 0
g_25_25 0
g_25_26 0
g_26_0 1
g_26_1 0
g_26_2 1
g_26_3 0
g_26_4 0
g_26_5 0
g_26_6 0
g_26_7 0
g_26_8 1
g_26_9 0
g_26_10 0
g_26_11 0
g_26_12 0
g_26_13 0
g_26_14 0
g_26_15 0
g_26_16 0
g_26_17 0
g_26_18 0
g_26_19 0
g_26_20 0
g_26_21 0
g_26_22 0
g_26_23 0
g_26_24 0
g_26_25 0
g_26_26 0
T_0 3.3911068117124527e-01
T_1 -1.9854935249176553e-01
T_2 0.355437049591479
T_3 -3.6738883626685464e-03
T_4 3.4226727638686066e-01
T_5 -1.9861324446328033e-01
T_6 -1.9448168873603167e-01
T_7 1.2051669046971034e-02
T_8 9.1519471351428090e-03
T_9 -2.0147464220505379e-01
T_10 -2.0215479271705467e-01
T_11 3.4264227429391075e-01
T_12 3.3596019847058872e-01
T_13 3.5728378831621760e-01
T_14 -9.3360595642951755e-03
T_15 -7.7672075332503490e-04
T_16 -1.8450419754289116e-03
T_17 0.000878745291120761
T_18 -0.201916943295866
T_19 3.4486833676664325e-01
T_20 -2.1759040271055383e-01
T_21 3.4013962000031939e-01
T_22 3.4570578302160954e-01
T_23 3.5138086086162007e-01
T_24 3.5633154638674230e-01
T_25 -1.5538546938827084e-03
T_26 3.5447954858346481e-01
